--- Job with_locational_instrument.gms Start 01/19/22 16:13:38 30.3.0 rc5da09e WEX-WEI x86 64bit/MS Windows
--- GAMS Parameters defined
    Input C:\Users\a.eicke\Documents\Locational-investment-signals\Two node models\with_locational_instrument.gms
    PageSize 0
    ScrDir C:\Users\a.eicke\Documents\Locational-investment-signals\Two node models\225c\
    SysDir C:\GAMS\win64\30.3\
    LogOption 3
    ErrMsg 1
    ErrorLog 99
    IDE 1
    LstTitleLeftAligned 1
GAMS 30.3.0   Copyright (C) 1987-2020 GAMS Development. All rights reserved
Licensee: Small MUD - 5 User License                     S190305:0326AO-WIN
          Hertie School of Governance GmbH, Governance of DigitalizaDC14808
--- Starting compilation
--- with_locational_instrument.gms(70) 3 Mb
--- GDXin=C:\Users\a.eicke\Documents\Locational-investment-signals\Two node models\in.gdx
--- with_locational_instrument.gms(290) 3 Mb
--- Starting execution: elapsed 0:00:00.013
--- with_locational_instrument.gms(257) 4 Mb
--- Generating MIQCP model LOCI
--- with_locational_instrument.gms(260) 6 Mb
---   1,333 rows  1,019 columns  3,713 non-zeroes
---   226 nl-code  36 nl-non-zeroes
---   268 discrete-columns
--- with_locational_instrument.gms(260) 4 Mb
--- Executing CPLEX: elapsed 0:00:00.037

IBM ILOG CPLEX   30.3.0 rc5da09e Released Mar 06, 2020 WEI x86 64bit/MS Window
--- GAMS/Cplex licensed for continuous and discrete problems.
Cplex 12.10.0.0

The search will stop after 65000000 nodes.
Reading data...
Starting Cplex...
Space for names approximately 0.07 Mb
Use option 'names no' to turn use of names off
Version identifier: 12.10.0.0 | 2019-11-26 | 843d4de2ae
CPXPARAM_Advance                                 0
CPXPARAM_Threads                                 1
CPXPARAM_Parallel                                1
CPXPARAM_MIP_Display                             4
CPXPARAM_Simplex_Limits_Iterations               2000000000
CPXPARAM_MIP_Limits_Nodes                        65000000
CPXPARAM_TimeLimit                               150000
CPXPARAM_Tune_TimeLimit                          30000
CPXPARAM_MIP_Tolerances_AbsMIPGap                0
CPXPARAM_MIP_Tolerances_MIPGap                   0.00050000000000000001
CPXPARAM_WorkDir                                 "C:\Users\a.eicke\Documents\Locational-investment-signals\Two node models\225c\"
Tried aggregator 2 times.
MIQP Presolve eliminated 438 rows and 124 columns.
MIQP Presolve modified 364 coefficients.
Aggregator did 43 substitutions.
Reduced MIQP has 852 rows, 847 columns, and 2624 nonzeros.
Reduced MIQP has 234 binaries, 0 generals, 0 SOSs, and 0 indicators.
Reduced MIQP objective Q matrix has 36 nonzeros.
Presolve time = 0.02 sec. (2.41 ticks)
Probing fixed 14 vars, tightened 60 bounds.
Probing time = 0.00 sec. (0.93 ticks)
Tried aggregator 1 time.
MIQP Presolve eliminated 28 rows and 14 columns.
MIQP Presolve modified 16 coefficients.
Reduced MIQP has 824 rows, 833 columns, and 2480 nonzeros.
Reduced MIQP has 220 binaries, 0 generals, 0 SOSs, and 0 indicators.
Reduced MIQP objective Q matrix has 36 nonzeros.
Presolve time = 0.00 sec. (1.05 ticks)
Classifier predicts products in MIQP should be linearized.
Probing fixed 15 vars, tightened 479 bounds.
Probing time = 0.00 sec. (1.54 ticks)
Clique table members: 116.
MIP emphasis: balance optimality and feasibility.
MIP search method: dynamic search.
Parallel mode: none, using 1 thread.
Tried aggregator 1 time.
QP Presolve eliminated 127 rows and 127 columns.
Aggregator did 149 substitutions.
Reduced QP has 548 rows, 557 columns, and 1843 nonzeros.
Reduced QP objective Q matrix has 36 nonzeros.
Presolve time = 0.00 sec. (0.67 ticks)
Parallel mode: none, using 1 thread for barrier

***NOTE: Found 6 dense columns.

Number of nonzeros in lower triangle of A*A' = 2779
Using Approximate Minimum Degree ordering
Total time for automatic ordering = 0.00 sec. (0.26 ticks)
Summary statistics for Cholesky factor:
  Rows in Factor            = 554
  Integer space required    = 1602
  Total non-zeros in factor = 8151
  Total FP ops to factor    = 188625
 Itn      Primal Obj        Dual Obj  Prim Inf Upper Inf  Dual Inf          
   0  -1.8448337e+06   1.1648702e+08  1.04e+05  8.08e+04  4.15e+04
   1  -1.0598460e+06   8.4265720e+07  7.46e+04  5.77e+04  2.96e+04
   2  -4.8387528e+05   4.9007003e+07  4.15e+04  3.21e+04  1.65e+04
   3  -1.8812885e+05   2.3917308e+07  1.88e+04  1.46e+04  7.51e+03
   4  -1.9589504e+04   7.7498520e+06  5.23e+03  4.05e+03  2.09e+03
   5   6.2226862e+04   1.2388024e+06  6.75e+02  5.22e+02  2.69e+02
   6   8.7395721e+04   4.7310620e+05  1.62e+02  1.25e+02  6.46e+01
   7   1.0406464e+05   2.2710850e+05  4.47e+01  3.45e+01  1.78e+01
   8   1.1232128e+05   1.4166132e+05  6.72e+00  5.19e+00  2.67e+00
   9   1.1323064e+05   1.3156512e+05  2.35e+00  1.81e+00  9.32e-01
  10   1.1430282e+05   1.2369957e+05  7.68e-01  5.93e-01  3.05e-01
  11   1.1524037e+05   1.1790627e+05  1.62e-01  1.25e-01  6.41e-02
  12   1.1554653e+05   1.1594730e+05  9.47e-03  7.30e-03  3.75e-03
  13   1.1559704e+05   1.1565031e+05  1.22e-03  9.38e-04  4.82e-04
  14   1.1560400e+05   1.1560928e+05  1.14e-04  8.82e-05  4.53e-05
  15   1.1560479e+05   1.1560494e+05  2.57e-06  1.95e-06  1.00e-06
  16   1.1560483e+05   1.1560484e+05  2.88e-07  1.89e-08  9.57e-09
  17   1.1560483e+05   1.1560483e+05  8.76e-07  4.13e-10  7.16e-11
  18   1.1560483e+05   1.1560483e+05  6.03e-07  2.64e-10  1.67e-11
Barrier time = 0.05 sec. (9.07 ticks)

QP crossover.
  Primal and Dual:  Fixing 298 variables.
  Primal:  Pushed 167, exchanged 93.
  Dual  :  Pushed 26, exchanged 70.
Total crossover time = 0.00 sec. (6.32 ticks)

Total time on 1 threads = 0.05 sec. (16.12 ticks)
Root relaxation solution time = 0.05 sec. (16.13 ticks)

        Nodes                                         Cuts/
   Node  Left     Objective  IInf  Best Integer    Best Bound    ItCnt     Gap

      0     0   115604.8347   136                 115604.8347       18         
      0     0   115604.8347   136                   Cuts: 306      714         
      0     0   115604.8347   136                   Cuts: 306     1095         
      0     0   115604.8347   136                   Cuts: 102     1227         
      0     0   115604.8347   136                    Cuts: 52     1275         
      0     0   115604.8347   136                    Cuts: 34     1291         
      0     2   115604.8347    46                 115604.8347     1291         
Elapsed time = 0.83 sec. (433.02 ticks, tree = 0.01 MB, solutions = 0)
     40    40   112328.1333    49                 115604.8347     4294         
     80    76   111064.2104     6                 115604.8347    10013         
    116   102   113328.9841    29                 115604.8347    13254         
                                                 Impl Bds: 19                  
    172   146   113430.4786    17                 115604.8347    18514         
                                                  Impl Bds: 9                  
    220   184   115604.8347    46                 115604.8347    20684         
                                                  Impl Bds: 9                  
    281   241   112575.8136    14                 115604.8347    26768         
    368   298   110639.1536    39                 115604.8347    32564         
                                                     Cuts: 19                  
    405   321   108383.7091    19                 115604.8347    37555         
                                                  Impl Bds: 2                  
    474   372    infeasible                       115604.8347    44262         
                                                  Impl Bds: 2                  
    672   524   115486.2579    26                 115604.8347    66315         
                                                     Cuts: 32                  
Elapsed time = 6.19 sec. (3582.97 ticks, tree = 0.31 MB, solutions = 0)
    837   657   115551.7110    40                 115604.8347    82959         
                                                 Impl Bds: 12                  

Performing restart 1

Repeating presolve.
Tried aggregator 2 times.
MIQP Presolve eliminated 30 rows and 30 columns.
MIQP Presolve modified 288 coefficients.
Aggregator did 15 substitutions.
Reduced MIQP has 779 rows, 788 columns, and 2331 nonzeros.
Reduced MIQP has 205 binaries, 0 generals, 0 SOSs, and 0 indicators.
Reduced MIQP objective Q matrix has 36 nonzeros.
Presolve time = 0.00 sec. (1.82 ticks)
Tried aggregator 1 time.
MIQP Presolve eliminated 29 rows and 29 columns.
MIQP Presolve modified 136 coefficients.
Reduced MIQP has 750 rows, 759 columns, and 2248 nonzeros.
Reduced MIQP has 180 binaries, 0 generals, 0 SOSs, and 0 indicators.
Reduced MIQP objective Q matrix has 36 nonzeros.
Presolve time = 0.00 sec. (0.98 ticks)
Tried aggregator 1 time.
MIQP Presolve modified 128 coefficients.
Reduced MIQP has 750 rows, 759 columns, and 2248 nonzeros.
Reduced MIQP has 180 binaries, 0 generals, 0 SOSs, and 0 indicators.
Reduced MIQP objective Q matrix has 36 nonzeros.
Presolve time = 0.00 sec. (0.95 ticks)
Represolve time = 0.03 sec. (9.78 ticks)
Tried aggregator 1 time.
QP Presolve eliminated 48 rows and 0 columns.
Aggregator did 134 substitutions.
Reduced QP has 870 rows, 625 columns, and 2764 nonzeros.
Reduced QP objective Q matrix has 36 nonzeros.
Presolve time = 0.00 sec. (0.76 ticks)
Parallel mode: none, using 1 thread for barrier

***NOTE: Found 7 dense columns.

Number of nonzeros in lower triangle of A*A' = 5984
Using Approximate Minimum Degree ordering
Total time for automatic ordering = 0.00 sec. (0.47 ticks)
Summary statistics for Cholesky factor:
  Rows in Factor            = 877
  Integer space required    = 3077
  Total non-zeros in factor = 17920
  Total FP ops to factor    = 492432
 Itn      Primal Obj        Dual Obj  Prim Inf Upper Inf  Dual Inf          
   0  -2.4999652e+09   2.5532918e+09  1.77e+05  9.76e+04  3.70e+07
   1  -9.3659009e+08   9.7102868e+08  1.09e+05  5.98e+04  2.27e+07
   2  -4.1565007e+08   4.4074837e+08  7.25e+04  3.99e+04  1.51e+07
   3  -3.3729999e+06   7.3230321e+06  6.78e+03  3.73e+03  1.41e+06
   4  -7.5263438e+05   3.1115656e+06  3.21e+03  1.77e+03  6.71e+05
   5  -1.0906131e+04   1.0605512e+06  9.19e+02  5.05e+02  1.92e+05
   6   3.9444643e+04   7.8287877e+05  5.89e+02  3.24e+02  1.23e+05
   7   6.6283949e+04   6.7562028e+05  4.14e+02  2.27e+02  8.65e+04
   8   1.0072618e+05   2.5295433e+05  9.33e+01  5.13e+01  1.95e+04
   9   1.0825068e+05   1.8246258e+05  3.37e+01  1.86e+01  7.06e+03
  10   1.1257327e+05   1.3962902e+05  9.32e+00  5.12e+00  1.95e+03
  11   1.1349438e+05   1.3057518e+05  2.75e+00  1.51e+00  5.76e+02
  12   1.1441418e+05   1.2427335e+05  1.20e+00  6.63e-01  2.52e+02
  13   1.1508463e+05   1.1897516e+05  1.22e-01  6.73e-02  2.56e+01
  14   1.1542087e+05   1.1685905e+05  1.12e-02  6.14e-03  2.34e+00
  15   1.1556578e+05   1.1589406e+05  2.50e-03  1.37e-03  5.23e-01
  16   1.1560213e+05   1.1562612e+05  1.61e-04  8.85e-05  3.37e-02
  17   1.1560463e+05   1.1560621e+05  9.55e-06  5.25e-06  2.00e-03
  18   1.1560482e+05   1.1560490e+05  4.71e-07  2.39e-07  9.08e-05
  19   1.1560483e+05   1.1560484e+05  1.59e-07  1.25e-09  4.66e-07
  20   1.1560483e+05   1.1560483e+05  2.65e-07  6.08e-11  2.46e-09
Barrier time = 0.05 sec. (17.45 ticks)

QP crossover.
  Primal and Dual:  Fixing 317 variables.
  Primal:  Pushed 135, exchanged 149.
  Dual  :  Pushed 26, exchanged 126.
Removing shift (1).
Total crossover time = 0.03 sec. (9.60 ticks)

Total time on 1 threads = 0.08 sec. (27.88 ticks)
    962     0   115604.8347    62                   Cuts: 222    95455         
    962     0   115604.8347    62                   Cuts: 132    95523         
    962     0   115604.8347    62                    Cuts: 55    95563         
    962     0   115604.8347    62                    Cuts: 36    95575         
    964     4   111742.1151    66                 115604.8347    95790         
   1067    99    infeasible                       115604.8347   102891         
*  1141   123      integral     0   114042.0452   115604.8347   109391    1.37%
Found incumbent of value 114042.045212 after 11.27 sec. (6843.08 ticks)
*  1162+  130                       114900.5539   115604.8347             0.61%
Found incumbent of value 114900.553890 after 11.34 sec. (6905.89 ticks)
*  1172   135      integral     0   114904.6071   115604.8347   110974    0.61%
Found incumbent of value 114904.607148 after 11.39 sec. (6935.23 ticks)
*  1257   189      integral     0   114931.0088   115604.8347   113975    0.59%
Found incumbent of value 114931.008819 after 12.02 sec. (7278.50 ticks)
*  1262+  177                       115047.6139   115604.8347             0.48%
Found incumbent of value 115047.613889 after 12.95 sec. (7992.20 ticks)
*  1262+  177                       115051.6637   115604.8347             0.48%
Found incumbent of value 115051.663731 after 13.97 sec. (8689.16 ticks)
*  1262+  176                       115086.6538   115604.8347             0.45%
Found incumbent of value 115086.653836 after 14.31 sec. (8933.43 ticks)
   1262   177   115458.0079    34   115086.6538   115604.8347   114738    0.45%
*  1362+  198                       115200.8831   115604.8347             0.35%
Found incumbent of value 115200.883105 after 15.03 sec. (9379.31 ticks)
   1603   349   115468.3854    18   115200.8831   115604.8347   128683    0.35%
*  1924+  513                       115201.2654   115604.8347             0.35%
Found incumbent of value 115201.265373 after 18.89 sec. (11989.80 ticks)
*  1924+  512                       115203.7355   115604.8347             0.35%
Found incumbent of value 115203.735521 after 19.02 sec. (12060.69 ticks)
*  1924+  485                       115229.6441   115604.8347             0.33%
Found incumbent of value 115229.644080 after 19.92 sec. (12617.02 ticks)
*  1924+  422                       115241.6243   115604.8347             0.32%
Found incumbent of value 115241.624291 after 20.02 sec. (12669.30 ticks)
*  1924+  422                       115243.8215   115604.8347             0.31%
Found incumbent of value 115243.821462 after 20.92 sec. (13156.83 ticks)
   1924   423   115299.8055    20   115243.8215   115604.8347   143230    0.31%

Performing restart 2

Repeating presolve.
Tried aggregator 2 times.
MIQP Presolve eliminated 29 rows and 29 columns.
MIQP Presolve modified 14 coefficients.
Aggregator did 24 substitutions.
Reduced MIQP has 697 rows, 706 columns, and 2135 nonzeros.
Reduced MIQP has 176 binaries, 0 generals, 0 SOSs, and 0 indicators.
Reduced MIQP objective Q matrix has 36 nonzeros.
Presolve time = 0.00 sec. (1.88 ticks)
Tried aggregator 1 time.
MIQP Presolve modified 2 coefficients.
Reduced MIQP has 697 rows, 706 columns, and 2135 nonzeros.
Reduced MIQP has 176 binaries, 0 generals, 0 SOSs, and 0 indicators.
Reduced MIQP objective Q matrix has 36 nonzeros.
Presolve time = 0.00 sec. (0.91 ticks)
Represolve time = 0.05 sec. (7.53 ticks)
Tried aggregator 1 time.
QP Presolve eliminated 14 rows and 0 columns.
Aggregator did 123 substitutions.
Reduced QP has 648 rows, 583 columns, and 2210 nonzeros.
Reduced QP objective Q matrix has 36 nonzeros.
Presolve time = 0.00 sec. (0.59 ticks)
Parallel mode: none, using 1 thread for barrier

***NOTE: Found 8 dense columns.

Number of nonzeros in lower triangle of A*A' = 3458
Using Approximate Minimum Degree ordering
Total time for automatic ordering = 0.00 sec. (0.34 ticks)
Summary statistics for Cholesky factor:
  Rows in Factor            = 656
  Integer space required    = 2182
  Total non-zeros in factor = 11795
  Total FP ops to factor    = 297357
 Itn      Primal Obj        Dual Obj  Prim Inf Upper Inf  Dual Inf          
   0  -1.5020771e+06   2.0950615e+07  1.09e+05  7.23e+04  3.85e+04
   1  -6.7556614e+05   1.4173716e+07  7.12e+04  4.72e+04  2.51e+04
   2   2.6325500e+04   3.3006400e+06  1.44e+04  9.57e+03  5.10e+03
   3   7.1730904e+04   7.5144858e+05  2.12e+03  1.40e+03  7.45e+02
   4   7.8142134e+04   6.4555082e+05  1.39e+03  9.17e+02  4.87e+02
   5   1.0115654e+05   2.4552445e+05  3.16e+02  2.09e+02  1.11e+02
   6   1.0920588e+05   1.7421946e+05  1.15e+02  7.63e+01  4.05e+01
   7   1.1285006e+05   1.3714277e+05  3.02e+01  2.00e+01  1.06e+01
   8   1.1380095e+05   1.2852943e+05  1.18e+01  7.79e+00  4.13e+00
   9   1.1477089e+05   1.2185191e+05  3.66e+00  2.43e+00  1.29e+00
  10   1.1524284e+05   1.1811946e+05  9.26e-01  6.13e-01  3.25e-01
  11   1.1549048e+05   1.1638946e+05  1.73e-01  1.14e-01  6.06e-02
  12   1.1558279e+05   1.1576717e+05  3.45e-02  2.29e-02  1.21e-02
  13   1.1560331e+05   1.1561644e+05  2.20e-03  1.45e-03  7.71e-04
  14   1.1560475e+05   1.1560514e+05  5.17e-05  3.42e-05  1.82e-05
  15   1.1560483e+05   1.1560484e+05  1.66e-06  1.05e-06  5.56e-07
  16   1.1560483e+05   1.1560483e+05  3.43e-07  5.20e-09  2.73e-09
  17   1.1560483e+05   1.1560483e+05  3.89e-07  5.14e-11  1.55e-11
Barrier time = 0.03 sec. (10.95 ticks)

QP crossover.
  Primal and Dual:  Fixing 279 variables.
  Primal:  Pushed 139, exchanged 126.
  Dual  :  Pushed 11, exchanged 103.
Removing shift (1).
Total crossover time = 0.03 sec. (7.97 ticks)

Total time on 1 threads = 0.06 sec. (19.57 ticks)
   2034     0   115604.8347    73   115243.8215     Cuts: 274   147853    0.31%
   2034     0   115604.8347    73   115243.8215     Cuts: 138   147897    0.31%
   2034     0   115604.8347    73   115243.8215      Cuts: 43   147921    0.31%
   2034     0   115604.8347    73   115243.8215      Cuts: 36   147959    0.31%
   2034     0   115604.8347    73   115243.8215      Cuts: 15   147969    0.31%
   2034     0   115604.8347    73   115243.8215    MIRcuts: 3   147971    0.31%
   2034     0   115604.8347    73   115243.8215    MIRcuts: 3   147973    0.31%

Repeating presolve.
Tried aggregator 2 times.
MIQP Presolve eliminated 12 rows and 12 columns.
MIQP Presolve modified 30 coefficients.
Aggregator did 4 substitutions.
Reduced MIQP has 681 rows, 690 columns, and 2097 nonzeros.
Reduced MIQP has 170 binaries, 0 generals, 0 SOSs, and 0 indicators.
Reduced MIQP objective Q matrix has 36 nonzeros.
Presolve time = 0.00 sec. (1.16 ticks)
Tried aggregator 1 time.
Reduced MIQP has 681 rows, 690 columns, and 2097 nonzeros.
Reduced MIQP has 170 binaries, 0 generals, 0 SOSs, and 0 indicators.
Reduced MIQP objective Q matrix has 36 nonzeros.
Presolve time = 0.00 sec. (0.89 ticks)
Represolve time = 0.02 sec. (6.64 ticks)
Tried aggregator 1 time.
QP Presolve eliminated 8 rows and 0 columns.
Aggregator did 107 substitutions.
Reduced QP has 658 rows, 583 columns, and 2248 nonzeros.
Reduced QP objective Q matrix has 36 nonzeros.
Presolve time = 0.00 sec. (0.58 ticks)
Parallel mode: none, using 1 thread for barrier

***NOTE: Found 7 dense columns.

Number of nonzeros in lower triangle of A*A' = 4162
Using Approximate Minimum Degree ordering
Total time for automatic ordering = 0.00 sec. (0.41 ticks)
Summary statistics for Cholesky factor:
  Rows in Factor            = 665
  Integer space required    = 2492
  Total non-zeros in factor = 14435
  Total FP ops to factor    = 453117
 Itn      Primal Obj        Dual Obj  Prim Inf Upper Inf  Dual Inf          
   0  -5.4397235e+05   7.2404986e+06  7.14e+04  4.20e+04  2.56e+04
   1  -1.2654228e+05   4.2005748e+06  3.93e+04  2.31e+04  1.41e+04
   2  -2.4450086e+04   2.7132733e+06  2.29e+04  1.34e+04  8.20e+03
   3   8.4990749e+04   7.5422718e+05  4.89e+03  2.87e+03  1.75e+03
   4   9.8635706e+04   3.4302975e+05  1.51e+03  8.85e+02  5.40e+02
   5   1.0778628e+05   2.0276928e+05  4.53e+02  2.66e+02  1.62e+02
   6   1.1231077e+05   1.4188033e+05  8.36e+01  4.92e+01  3.00e+01
   7   1.1381774e+05   1.2907997e+05  3.13e+01  1.84e+01  1.12e+01
   8   1.1455114e+05   1.2364923e+05  1.25e+01  7.34e+00  4.48e+00
   9   1.1520630e+05   1.1837180e+05  2.25e+00  1.32e+00  8.06e-01
  10   1.1548832e+05   1.1639727e+05  3.04e-01  1.79e-01  1.09e-01
  11   1.1558195e+05   1.1577319e+05  6.25e-02  3.67e-02  2.24e-02
  12   1.1560312e+05   1.1561778e+05  4.32e-03  2.54e-03  1.55e-03
  13   1.1560475e+05   1.1560518e+05  1.02e-04  5.99e-05  3.65e-05
  14   1.1560483e+05   1.1560485e+05  3.75e-06  2.20e-06  1.34e-06
  15   1.1560483e+05   1.1560483e+05  9.17e-08  1.15e-08  7.01e-09
  16   1.1560483e+05   1.1560483e+05  4.81e-08  6.14e-11  3.79e-11
Barrier time = 0.05 sec. (12.03 ticks)

QP crossover.
  Primal and Dual:  Fixing 280 variables.
  Primal:  Pushed 116, exchanged 150.
  Dual  :  Pushed 11, exchanged 127.
Total crossover time = 0.00 sec. (7.75 ticks)

Total time on 1 threads = 0.05 sec. (20.42 ticks)
   2034     0   115604.8347    80   115243.8215     Cuts: 225   148112    0.31%
   2034     0   115604.8347    80   115243.8215      Cuts: 81   148150    0.31%
   2034     0   115604.8347    80   115243.8215      Cuts: 28   148206    0.31%
   2034     0   115604.8347    80   115243.8215      Cuts: 52   148256    0.31%
   2034     0   115604.8347    80   115243.8215      Cuts: 31   148296    0.31%
   2034     0   115604.8347    80   115243.8215      Cuts: 17   148306    0.31%
   2034     0   115604.8347    80   115243.8215   MIRcuts: 12   148320    0.31%
   2034     2   115604.8347    64   115243.8215   115604.8347   148320    0.31%
   2141    63   115580.1252    23   115243.8215   115604.8347   152018    0.31%
   2242    84   115604.8347    40   115243.8215   115604.8347   160391    0.31%
Elapsed time = 28.67 sec. (17812.45 ticks, tree = 0.04 MB, solutions = 13)
   2369   108   115552.9745    42   115243.8215   115604.8347   167659    0.31%
   2553   146   115552.8861    35   115243.8215   115603.8780   176777    0.31%
   2799   164   115591.9820    43   115243.8215   115591.9820   188961    0.30%
   3094   272   115587.9719    33   115243.8215   115587.9719   200028    0.30%
   3315   298   115580.1252    14   115243.8215   115580.1252   212300    0.29%
   3616   359   115278.4311    39   115243.8215   115564.1936   223410    0.28%
   3932   419   115551.7110    46   115243.8215   115551.7110   236438    0.27%
   4249   507        cutoff         115243.8215   115545.5073   250182    0.26%
   4644   611   115360.2238    46   115243.8215   115520.7683   262964    0.24%
   4988   600   115300.9762    53   115243.8215   115499.3767   278637    0.22%
Elapsed time = 43.58 sec. (27391.64 ticks, tree = 0.30 MB, solutions = 13)
   5468   636   115455.3611    43   115243.8215   115467.0452   292816    0.19%
   5870   593   115433.9829    42   115243.8215   115433.9829   308039    0.17%
   6230   570        cutoff         115243.8215   115427.7594   324285    0.16%
   6641   458   115358.8277    50   115243.8215   115384.1064   339763    0.12%
   7061   507   115287.9865    16   115243.8215   115376.9279   352748    0.12%
   7506   422   115250.8201    27   115243.8215   115351.3257   365892    0.09%
                                                     Cuts: 19                  
   7980   357        cutoff         115243.8215   115327.4278   380214    0.07%

Clique cuts applied:  11
Cover cuts applied:  3
Implied bound cuts applied:  21
Flow cuts applied:  29
Mixed integer rounding cuts applied:  38

Root node processing (before b&c):
  Real time             =    0.83 sec. (433.09 ticks)
Sequential b&c:
  Real time             =   53.66 sec. (34124.72 ticks)
                          ------------
Total (root+branch&cut) =   54.48 sec. (34557.81 ticks)
MIQP status(102): integer optimal, tolerance
Cplex Time: 54.48sec (det. 34557.81 ticks)
Fixing integer variables, and solving final QP..
Version identifier: 12.10.0.0 | 2019-11-26 | 843d4de2ae
CPXPARAM_Advance                                 2
CPXPARAM_Threads                                 1
CPXPARAM_Parallel                                1
CPXPARAM_MIP_Display                             4
CPXPARAM_Simplex_Limits_Iterations               2000000000
CPXPARAM_MIP_Limits_Nodes                        65000000
CPXPARAM_TimeLimit                               150000
CPXPARAM_Tune_TimeLimit                          30000
CPXPARAM_MIP_Tolerances_AbsMIPGap                0
CPXPARAM_MIP_Tolerances_MIPGap                   0.00050000000000000001
CPXPARAM_WorkDir                                 "C:\Users\a.eicke\Documents\Locational-investment-signals\Two node models\225c\"
Tried aggregator 1 time.
QP Presolve eliminated 975 rows and 673 columns.
Aggregator did 155 substitutions.
Reduced QP has 203 rows, 191 columns, and 719 nonzeros.
Reduced QP objective Q matrix has 36 nonzeros.
Presolve time = 0.00 sec. (0.99 ticks)
Parallel mode: none, using 1 thread for barrier

***NOTE: Found 9 dense columns.

Number of nonzeros in lower triangle of A*A' = 365
Using Approximate Minimum Degree ordering
Total time for automatic ordering = 0.00 sec. (0.03 ticks)
Summary statistics for Cholesky factor:
  Rows in Factor            = 212
  Integer space required    = 425
  Total non-zeros in factor = 1913
  Total FP ops to factor    = 22377
 Itn      Primal Obj        Dual Obj  Prim Inf Upper Inf  Dual Inf          
   0   3.8587723e+04   1.4814449e+07  4.35e+03  2.40e+02  1.87e+05
   1   7.4681353e+04   2.9290398e+06  6.15e+02  3.39e+01  2.64e+04
   2   8.8076064e+04   6.1464744e+05  4.96e+01  2.74e+00  2.13e+03
   3   1.0257680e+05   1.5826069e+05  4.35e+00  2.40e-01  1.88e+02
   4   1.1056148e+05   1.3296669e+05  1.13e+00  6.24e-02  4.98e+01
   5   1.1363777e+05   1.2116509e+05  3.28e-01  1.81e-02  1.85e+01
   6   1.1412245e+05   1.1918454e+05  1.19e-01  6.59e-03  6.61e+00
   7   1.1490663e+05   1.1640478e+05  3.19e-02  1.76e-03  2.06e+00
   8   1.1513213e+05   1.1565186e+05  9.53e-03  5.26e-04  6.20e-01
   9   1.1521898e+05   1.1533070e+05  1.11e-11  5.09e-13  2.84e-03
  10   1.1524052e+05   1.1525577e+05  2.14e-11  4.19e-13  6.40e-04
  11   1.1524365e+05   1.1524440e+05  7.86e-11  5.14e-13  3.65e-05
  12   1.1524382e+05   1.1524383e+05  2.99e-10  4.34e-13  2.62e-07
  13   1.1524382e+05   1.1524382e+05  2.16e-09  5.18e-13  2.04e-09
Barrier time = 0.00 sec. (3.11 ticks)

Total time on 1 threads = 0.00 sec. (3.11 ticks)
QP status(1): optimal
Cplex Time: 0.00sec (det. 3.11 ticks)

Solution satisfies tolerances.

MIP Solution:       115243.821462    (386610 iterations, 8281 nodes)
Final Solve:        115243.821419    (0 iterations)

Best possible:      115300.976211
Absolute gap:           57.154748
Relative gap:            0.000496

--- Restarting execution
--- with_locational_instrument.gms(260) 2 Mb
--- Reading solution for model LOCI
--- Executing after solve: elapsed 0:00:54.725
--- with_locational_instrument.gms(290) 3 Mb
--- GDX File C:\Users\a.eicke\Documents\Locational-investment-signals\Two node models\Output/with_instrument.gdx
*** Status: Normal completion
--- Job with_locational_instrument.gms Stop 01/19/22 16:14:33 elapsed 0:00:54.740
